
Gurobi 7.0.1 (win64) logging started 03/25/17 10:55:00

Changed value of parameter LogFile to ProvinceRunOutputs/log_prov3.log
   Prev: gurobi.log  Default: 
Optimize a model with 2912 rows, 136632 columns and 273698 nonzeros
Variable types: 0 continuous, 136632 integer (136632 binary)
Coefficient statistics:
  Matrix range     [1e+00, 1e+05]
  Objective range  [2e-01, 3e+02]
  Bounds range     [1e+00, 1e+00]
  RHS range        [1e+00, 6e+00]
Found heuristic solution: objective 354834
Presolve removed 479 rows and 8496 columns
Presolve time: 0.52s
Presolved: 2433 rows, 128136 columns, 256463 nonzeros

MIP start did not produce a new incumbent solution
MIP start violates constraint R0 by 999999.000000000

Variable types: 0 continuous, 128136 integer (128136 binary)

Root relaxation: objective 3.626333e+04, 2084 iterations, 0.05 seconds

    Nodes    |    Current Node    |     Objective Bounds      |     Work
 Expl Unexpl |  Obj  Depth IntInf | Incumbent    BestBd   Gap | It/Node Time

     0     0 36263.3346    0   30 354833.799 36263.3346  89.8%     -    0s
H    0     0                    65494.211887 36263.3346  44.6%     -    2s
H    0     0                    45766.766990 36263.3346  20.8%     -    2s
H    0     0                    39521.215100 36263.3346  8.24%     -    3s
     0     0 37305.2536    0  556 39521.2151 37305.2536  5.61%     -    3s
     0     0 38450.6994    0 1031 39521.2151 38450.6994  2.71%     -    4s
     0     0 38452.0319    0 1031 39521.2151 38452.0319  2.71%     -    5s
     0     0 38900.4998    0 1310 39521.2151 38900.4998  1.57%     -    5s
     0     0 38902.9334    0 1315 39521.2151 38902.9334  1.56%     -    6s
     0     0 39104.5582    0 1643 39521.2151 39104.5582  1.05%     -    6s
*    0     0               0    39413.251444 39413.2514  0.00%     -    9s

Explored 0 nodes (10986 simplex iterations) in 9.46 seconds
Thread count was 4 (of 4 available processors)

Solution count 5: 39413.3 39521.2 45766.8 ... 354834
Pool objective bound 39413.3

Optimal solution found (tolerance 1.00e-04)
Best objective 3.941325144398e+04, best bound 3.941325144398e+04, gap 0.0000%
Optimize a model with 3088 rows, 136632 columns and 274226 nonzeros
Variable types: 0 continuous, 136632 integer (136632 binary)
Coefficient statistics:
  Matrix range     [1e+00, 1e+05]
  Objective range  [2e-01, 3e+02]
  Bounds range     [1e+00, 1e+00]
  RHS range        [1e+00, 6e+00]
Found heuristic solution: objective 354834
Presolve removed 479 rows and 8496 columns
Presolve time: 0.53s
Presolved: 2609 rows, 128136 columns, 256991 nonzeros

MIP start did not produce a new incumbent solution
MIP start violates constraint R0 by 999999.000000000

Variable types: 0 continuous, 128136 integer (128136 binary)

Root relaxation: objective 3.626333e+04, 2086 iterations, 0.07 seconds

    Nodes    |    Current Node    |     Objective Bounds      |     Work
 Expl Unexpl |  Obj  Depth IntInf | Incumbent    BestBd   Gap | It/Node Time

     0     0 36263.3346    0   30 354833.799 36263.3346  89.8%     -    0s
H    0     0                    64702.677295 36263.3346  44.0%     -    1s
H    0     0                    47078.139560 36263.3346  23.0%     -    1s
H    0     0                    44667.647703 36263.3346  18.8%     -    1s
H    0     0                    40948.265012 36263.3346  11.4%     -    2s
     0     0 36797.6337    0  365 40948.2650 36797.6337  10.1%     -    3s
     0     0 38351.2020    0 1317 40948.2650 38351.2020  6.34%     -    4s
     0     0 38351.2074    0 1318 40948.2650 38351.2074  6.34%     -    4s
     0     0 38894.7596    0 1529 40948.2650 38894.7596  5.01%     -    5s
H    0     0                    39521.215100 38894.7596  1.59%     -    6s
     0     0 38897.7138    0 1517 39521.2151 38897.7138  1.58%     -    6s
     0     0 39117.4859    0 1825 39521.2151 39117.4859  1.02%     -    6s
*    0     0               0    39413.251444 39413.2514  0.00%     -    9s

Explored 0 nodes (11186 simplex iterations) in 9.23 seconds
Thread count was 4 (of 4 available processors)

Solution count 7: 39413.3 39521.2 40948.3 ... 354834
Pool objective bound 39413.3

Optimal solution found (tolerance 1.00e-04)
Best objective 3.941325144398e+04, best bound 3.941325144398e+04, gap 0.0000%
Optimize a model with 3508 rows, 136632 columns and 275486 nonzeros
Variable types: 0 continuous, 136632 integer (136632 binary)
Coefficient statistics:
  Matrix range     [1e+00, 1e+05]
  Objective range  [2e-01, 3e+02]
  Bounds range     [1e+00, 1e+00]
  RHS range        [1e+00, 6e+00]
Found heuristic solution: objective 354834
Presolve removed 479 rows and 8496 columns
Presolve time: 0.53s
Presolved: 3029 rows, 128136 columns, 258251 nonzeros

MIP start did not produce a new incumbent solution
MIP start violates constraint R0 by 999999.000000000

Variable types: 0 continuous, 128136 integer (128136 binary)

Root relaxation: objective 3.626876e+04, 2103 iterations, 0.06 seconds

    Nodes    |    Current Node    |     Objective Bounds      |     Work
 Expl Unexpl |  Obj  Depth IntInf | Incumbent    BestBd   Gap | It/Node Time

     0     0 36268.7551    0   30 354833.799 36268.7551  89.8%     -    0s
H    0     0                    52310.672545 36268.7551  30.7%     -    1s
H    0     0                    49637.946694 36268.7551  26.9%     -    1s
H    0     0                    42012.939595 36268.7551  13.7%     -    3s
     0     0 37270.6055    0  737 42012.9396 37270.6055  11.3%     -    4s
     0     0 38565.6179    0 1791 42012.9396 38565.6179  8.21%     -    5s
     0     0 38570.5426    0 1795 42012.9396 38570.5426  8.19%     -    5s
     0     0 38982.7429    0 1496 42012.9396 38982.7429  7.21%     -    6s
H    0     0                    40068.320204 38982.7429  2.71%     -    6s
     0     0 38989.4809    0 1505 40068.3202 38989.4809  2.69%     -    6s
     0     0 39216.6021    0 1947 40068.3202 39216.6021  2.13%     -    7s
H    0     0                    39995.171623 39216.6021  1.95%     -    7s
     0     0 39221.7256    0 2007 39995.1716 39221.7256  1.93%     -    8s
     0     0 39378.6608    0 2352 39995.1716 39378.6608  1.54%     -    8s
     0     0 39591.7266    0 1179 39995.1716 39591.7266  1.01%     -   12s
H    0     0                    39651.831330 39591.7266  0.15%     -   12s
     0     0 39593.5228    0 1181 39651.8313 39593.5228  0.15%     -   14s
     0     0 39593.5228    0 1179 39651.8313 39593.5228  0.15%     -   15s
     0     0 39594.7589    0 1181 39651.8313 39594.7589  0.14%     -   23s
     0     0 39595.6213    0 1181 39651.8313 39595.6213  0.14%     -   24s
     0     0 39595.6213    0 1181 39651.8313 39595.6213  0.14%     -   24s
H    0     0                    39599.826014 39595.6213  0.01%     -   25s
     0     0     cutoff    0      39599.8260 39599.8260  0.00%     -   25s

Explored 0 nodes (19277 simplex iterations) in 25.28 seconds
Thread count was 4 (of 4 available processors)

Solution count 9: 39599.8 39599.8 39651.8 ... 354834
Pool objective bound 39599.8

Optimal solution found (tolerance 1.00e-04)
Best objective 3.959982601422e+04, best bound 3.959982601422e+04, gap 0.0000%
Optimize a model with 4046 rows, 136632 columns and 277100 nonzeros
Variable types: 0 continuous, 136632 integer (136632 binary)
Coefficient statistics:
  Matrix range     [1e+00, 1e+05]
  Objective range  [2e-01, 3e+02]
  Bounds range     [1e+00, 1e+00]
  RHS range        [1e+00, 6e+00]
Found heuristic solution: objective 354834
Presolve removed 479 rows and 8496 columns
Presolve time: 0.56s
Presolved: 3567 rows, 128136 columns, 259865 nonzeros

MIP start did not produce a new incumbent solution
MIP start violates constraint R0 by 999999.000000000

Variable types: 0 continuous, 128136 integer (128136 binary)

Root relaxation: objective 3.639612e+04, 2450 iterations, 0.23 seconds

    Nodes    |    Current Node    |     Objective Bounds      |     Work
 Expl Unexpl |  Obj  Depth IntInf | Incumbent    BestBd   Gap | It/Node Time

     0     0 36396.1214    0  254 354833.799 36396.1214  89.7%     -    1s
H    0     0                    40185.804771 36396.1214  9.43%     -    1s
H    0     0                    39620.455343 36396.1214  8.14%     -    1s
H    0     0                    39608.955515 36396.1214  8.11%     -    5s
     0     0 38079.1446    0 1192 39608.9555 38079.1446  3.86%     -    5s
     0     0 38079.1787    0 1198 39608.9555 38079.1787  3.86%     -    6s
     0     0 38940.3285    0 1440 39608.9555 38940.3285  1.69%     -    7s
     0     0 38956.1218    0 1471 39608.9555 38956.1218  1.65%     -    7s
     0     0 39158.9413    0 2073 39608.9555 39158.9413  1.14%     -    8s
     0     0 39591.7266    0 1179 39608.9555 39591.7266  0.04%     -   11s
     0     0 39593.0335    0 1182 39608.9555 39593.0335  0.04%     -   13s
     0     0 39593.0335    0 1010 39608.9555 39593.0335  0.04%     -   13s
     0     0 39593.4491    0 1011 39608.9555 39593.4491  0.04%     -   14s
     0     0 39594.3074    0 1011 39608.9555 39594.3074  0.04%     -   14s
     0     0 39594.9598    0 1010 39608.9555 39594.9598  0.04%     -   14s
     0     0 39595.2409    0 1010 39608.9555 39595.2409  0.03%     -   14s
     0     0 39595.8967    0 1010 39608.9555 39595.8967  0.03%     -   14s
     0     0 39595.9436    0 1010 39608.9555 39595.9436  0.03%     -   14s
     0     0 39596.2224    0 1009 39608.9555 39596.2224  0.03%     -   14s
     0     0 39596.7501    0 1010 39608.9555 39596.7501  0.03%     -   14s
     0     0 39597.5093    0 1010 39608.9555 39597.5093  0.03%     -   14s
     0     0 39597.5563    0 1010 39608.9555 39597.5563  0.03%     -   15s
H    0     0                    39599.826014 39597.5563  0.01%     -   15s

Cutting planes:
  Gomory: 3
  Zero half: 12

Explored 0 nodes (14160 simplex iterations) in 15.17 seconds
Thread count was 4 (of 4 available processors)

Solution count 6: 39599.8 39609 39609 ... 354834
Pool objective bound 39597.6

Optimal solution found (tolerance 1.00e-04)
Best objective 3.959982601422e+04, best bound 3.959755625416e+04, gap 0.0057%
Optimize a model with 4452 rows, 136632 columns and 278318 nonzeros
Variable types: 0 continuous, 136632 integer (136632 binary)
Coefficient statistics:
  Matrix range     [1e+00, 1e+05]
  Objective range  [2e-01, 3e+02]
  Bounds range     [1e+00, 1e+00]
  RHS range        [1e+00, 6e+00]
Found heuristic solution: objective 354834
Presolve removed 479 rows and 8496 columns
Presolve time: 0.55s
Presolved: 3973 rows, 128136 columns, 261083 nonzeros

MIP start did not produce a new incumbent solution
MIP start violates constraint R0 by 999999.000000000

Variable types: 0 continuous, 128136 integer (128136 binary)

Root relaxation: objective 3.676226e+04, 2907 iterations, 0.29 seconds

    Nodes    |    Current Node    |     Objective Bounds      |     Work
 Expl Unexpl |  Obj  Depth IntInf | Incumbent    BestBd   Gap | It/Node Time

     0     0 36762.2583    0  436 354833.799 36762.2583  89.6%     -    1s
H    0     0                    41284.355671 36762.2583  11.0%     -    1s
H    0     0                    39852.603501 36762.2583  7.75%     -    6s
     0     0 38260.7151    0 1320 39852.6035 38260.7151  3.99%     -    7s
     0     0 38260.7281    0 1322 39852.6035 38260.7281  3.99%     -    8s
     0     0 38978.6929    0 1885 39852.6035 38978.6929  2.19%     -   11s
     0     0 38991.8791    0 2115 39852.6035 38991.8791  2.16%     -   11s
     0     0 39215.6138    0 2553 39852.6035 39215.6138  1.60%     -   13s
     0     0 39228.0255    0 2606 39852.6035 39228.0255  1.57%     -   13s
     0     0 39385.0900    0 2523 39852.6035 39385.0900  1.17%     -   14s
*    0     0               0    39608.955515 39608.9555  0.00%     -   17s

Explored 0 nodes (13605 simplex iterations) in 17.95 seconds
Thread count was 4 (of 4 available processors)

Solution count 4: 39609 39852.6 41284.4 354834 
Pool objective bound 39609

Optimal solution found (tolerance 1.00e-04)
Best objective 3.960895551464e+04, best bound 3.960895551464e+04, gap 0.0000%
Optimize a model with 4502 rows, 136632 columns and 278468 nonzeros
Variable types: 0 continuous, 136632 integer (136632 binary)
Coefficient statistics:
  Matrix range     [1e+00, 1e+05]
  Objective range  [2e-01, 3e+02]
  Bounds range     [1e+00, 1e+00]
  RHS range        [1e+00, 6e+00]
Found heuristic solution: objective 354834
Presolve removed 479 rows and 8496 columns
Presolve time: 0.67s
Presolved: 4023 rows, 128136 columns, 261233 nonzeros

MIP start did not produce a new incumbent solution
MIP start violates constraint R0 by 999999.000000000

Variable types: 0 continuous, 128136 integer (128136 binary)

Root relaxation: objective 3.680927e+04, 2924 iterations, 0.36 seconds

    Nodes    |    Current Node    |     Objective Bounds      |     Work
 Expl Unexpl |  Obj  Depth IntInf | Incumbent    BestBd   Gap | It/Node Time

     0     0 36809.2673    0  488 354833.799 36809.2673  89.6%     -    1s
H    0     0                    40861.664489 36809.2673  9.92%     -    1s
H    0     0                    39852.603501 36809.2673  7.64%     -    5s
     0     0 38521.0733    0 1353 39852.6035 38521.0733  3.34%     -    6s
     0     0 38521.1639    0 1355 39852.6035 38521.1639  3.34%     -    7s
     0     0 39028.0745    0 1798 39852.6035 39028.0745  2.07%     -    8s
     0     0 39038.7576    0 1998 39852.6035 39038.7576  2.04%     -   10s
     0     0 39245.3084    0 2357 39852.6035 39245.3084  1.52%     -   11s
     0     0 39261.5567    0 2372 39852.6035 39261.5567  1.48%     -   12s
     0     0 39437.2307    0 2551 39852.6035 39437.2307  1.04%     -   12s
*    0     0               0    39608.955515 39608.9555  0.00%     -   16s

Explored 0 nodes (13940 simplex iterations) in 16.99 seconds
Thread count was 4 (of 4 available processors)

Solution count 4: 39609 39852.6 40861.7 354834 
Pool objective bound 39609

Optimal solution found (tolerance 1.00e-04)
Best objective 3.960895551464e+04, best bound 3.960895551464e+04, gap 0.0000%
Optimize a model with 4649 rows, 136632 columns and 278909 nonzeros
Variable types: 0 continuous, 136632 integer (136632 binary)
Coefficient statistics:
  Matrix range     [1e+00, 1e+05]
  Objective range  [2e-01, 3e+02]
  Bounds range     [1e+00, 1e+00]
  RHS range        [1e+00, 6e+00]
Found heuristic solution: objective 354834
Presolve removed 479 rows and 8496 columns
Presolve time: 0.53s
Presolved: 4170 rows, 128136 columns, 261674 nonzeros

MIP start did not produce a new incumbent solution
MIP start violates constraint R0 by 999999.000000000

Variable types: 0 continuous, 128136 integer (128136 binary)

Root relaxation: objective 3.690951e+04, 2959 iterations, 0.22 seconds

    Nodes    |    Current Node    |     Objective Bounds      |     Work
 Expl Unexpl |  Obj  Depth IntInf | Incumbent    BestBd   Gap | It/Node Time

     0     0 36909.5104    0  542 354833.799 36909.5104  89.6%     -    0s
H    0     0                    39942.307989 36909.5104  7.59%     -    1s
H    0     0                    39860.817968 36909.5104  7.40%     -    5s
     0     0 38456.9645    0 1488 39860.8180 38456.9645  3.52%     -    6s
     0     0 38457.0673    0 1493 39860.8180 38457.0673  3.52%     -    7s
     0     0 39033.4718    0 1921 39860.8180 39033.4718  2.08%     -    9s
     0     0 39051.1193    0 2183 39860.8180 39051.1193  2.03%     -    9s
     0     0 39257.0672    0 2613 39860.8180 39257.0672  1.51%     -   11s
     0     0 39281.9833    0 2682 39860.8180 39281.9833  1.45%     -   12s
     0     0 39431.1302    0 2612 39860.8180 39431.1302  1.08%     -   12s
*    0     0               0    39651.831330 39651.8313  0.00%     -   15s

Explored 0 nodes (14957 simplex iterations) in 16.01 seconds
Thread count was 4 (of 4 available processors)

Solution count 4: 39651.8 39860.8 39942.3 354834 
Pool objective bound 39651.8

Optimal solution found (tolerance 1.00e-04)
Best objective 3.965183133031e+04, best bound 3.965183133031e+04, gap 0.0000%
Optimize a model with 4678 rows, 136632 columns and 278996 nonzeros
Variable types: 0 continuous, 136632 integer (136632 binary)
Coefficient statistics:
  Matrix range     [1e+00, 1e+05]
  Objective range  [2e-01, 3e+02]
  Bounds range     [1e+00, 1e+00]
  RHS range        [1e+00, 6e+00]
Found heuristic solution: objective 354834
Presolve removed 479 rows and 8496 columns
Presolve time: 0.56s
Presolved: 4199 rows, 128136 columns, 261761 nonzeros

MIP start did not produce a new incumbent solution
MIP start violates constraint R0 by 999999.000000000

Variable types: 0 continuous, 128136 integer (128136 binary)

Root relaxation: objective 3.690951e+04, 2937 iterations, 0.30 seconds

    Nodes    |    Current Node    |     Objective Bounds      |     Work
 Expl Unexpl |  Obj  Depth IntInf | Incumbent    BestBd   Gap | It/Node Time

     0     0 36909.5104    0  542 354833.799 36909.5104  89.6%     -    1s
H    0     0                    40172.191388 36909.5104  8.12%     -    1s
H    0     0                    39853.996037 36909.5104  7.39%     -    6s
     0     0 38653.2531    0 1486 39853.9960 38653.2531  3.01%     -    7s
     0     0 38653.3422    0 1488 39853.9960 38653.3422  3.01%     -    8s
     0     0 39039.0405    0 1870 39853.9960 39039.0405  2.04%     -    9s
     0     0 39051.8668    0 2123 39853.9960 39051.8668  2.01%     -    9s
     0     0 39267.0083    0 2444 39853.9960 39267.0083  1.47%     -   11s
     0     0 39293.5309    0 2467 39853.9960 39293.5309  1.41%     -   11s
     0     0 39450.6797    0 2687 39853.9960 39450.6797  1.01%     -   12s
     0     0 39665.0992    0 1577 39853.9960 39665.0992  0.47%     -   17s
H    0     0                    39811.464789 39665.0992  0.37%     -   17s
     0     0 39735.1908    0  699 39811.4648 39735.1908  0.19%     -   20s
     0     0 39735.1908    0 1371 39811.4648 39735.1908  0.19%     -   21s
H    0     0                    39783.035190 39735.1908  0.12%     -   22s
*    0     0               0    39738.928213 39738.9282  0.00%     -   22s

Cutting planes:
  Gomory: 5
  MIR: 3
  Zero half: 157

Explored 0 nodes (19600 simplex iterations) in 22.51 seconds
Thread count was 4 (of 4 available processors)

Solution count 6: 39738.9 39783 39811.5 ... 354834
Pool objective bound 39738.9

Optimal solution found (tolerance 1.00e-04)
Best objective 3.973892821292e+04, best bound 3.973892821292e+04, gap 0.0000%
Optimize a model with 4730 rows, 136632 columns and 279152 nonzeros
Variable types: 0 continuous, 136632 integer (136632 binary)
Coefficient statistics:
  Matrix range     [1e+00, 1e+05]
  Objective range  [2e-01, 3e+02]
  Bounds range     [1e+00, 1e+00]
  RHS range        [1e+00, 6e+00]
Found heuristic solution: objective 354834
Presolve removed 479 rows and 8496 columns
Presolve time: 0.68s
Presolved: 4251 rows, 128136 columns, 261917 nonzeros

MIP start did not produce a new incumbent solution
MIP start violates constraint R0 by 999999.000000000

Variable types: 0 continuous, 128136 integer (128136 binary)

Root relaxation: objective 3.690951e+04, 2961 iterations, 0.32 seconds

    Nodes    |    Current Node    |     Objective Bounds      |     Work
 Expl Unexpl |  Obj  Depth IntInf | Incumbent    BestBd   Gap | It/Node Time

     0     0 36909.5104    0  542 354833.799 36909.5104  89.6%     -    1s
H    0     0                    40436.257219 36909.5104  8.72%     -    1s
H    0     0                    39994.926651 36909.5104  7.71%     -    6s
     0     0 38653.2531    0 1484 39994.9267 38653.2531  3.35%     -    8s
     0     0 38653.3422    0 1486 39994.9267 38653.3422  3.35%     -    9s
     0     0 39039.0515    0 1870 39994.9267 39039.0515  2.39%     -   10s
     0     0 39051.8415    0 2128 39994.9267 39051.8415  2.36%     -   11s
     0     0 39267.0039    0 2437 39994.9267 39267.0039  1.82%     -   13s
     0     0 39295.9933    0 2461 39994.9267 39295.9933  1.75%     -   13s
     0     0 39450.8642    0 2683 39994.9267 39450.8642  1.36%     -   14s
     0     0 39665.0992    0 1577 39994.9267 39665.0992  0.82%     -   19s
H    0     0                    39827.915047 39665.0992  0.41%     -   20s
     0     0 39733.6036    0  693 39827.9150 39733.6036  0.24%     -   22s
     0     0 39733.6036    0 1371 39827.9150 39733.6036  0.24%     -   24s
H    0     0                    39809.877876 39733.6036  0.19%     -   24s
     0     0 39747.7797    0  663 39809.8779 39747.7797  0.16%     -   24s
H    0     0                    39755.378472 39747.7797  0.02%     -   24s
     0     0     cutoff    0      39755.3785 39755.3785  0.00%     -   25s

Cutting planes:
  Gomory: 5
  MIR: 21
  Zero half: 143

Explored 0 nodes (19504 simplex iterations) in 25.42 seconds
Thread count was 4 (of 4 available processors)

Solution count 6: 39755.4 39809.9 39827.9 ... 354834
Pool objective bound 39755.4

Optimal solution found (tolerance 1.00e-04)
Best objective 3.975537847174e+04, best bound 3.975537847174e+04, gap 0.0000%
